n = 100;
C = 24680;
w = [68,119,11,746,730,753,829,391,11,418,703,106,335,894,421,128,653,810,838,696,140,456,733,936,675,127,378,607,194,729,46,177,54,171,635,999,657,169,505,876,928,431,226,896,131,353,608,425,849,324,937,125,985,915,370,145,793,915,888,334,219,871,889,615,580,85,329,628,795,646,437,530,568,322,428,128,266,546,561,35,759,660,747,835,569,475,173,356,819,396,494,494,120,107,650,54,708,491,319,155];
p = [94,64,-19,682,656,837,866,315,1,453,738,18,350,957,430,200,734,784,840,635,188,378,793,885,714,31,285,581,154,723,19,217,3,72,592,1028,739,93,489,963,881,362,188,942,128,334,570,359,912,315,899,171,893,925,394,59,869,936,952,271,248,807,969,663,530,7,251,658,720,730,378,536,617,382,512,80,323,502,567,43,818,684,823,888,598,478,139,263,883,350,533,488,88,58,574,58,738,498,264,206];
